
  32    1
  10

   0   0   5 2 3 4 5 8 
   6   1   2 7 6 
  10   5   2 7 6 
   5   6   5 14 13 11 10 9 
   6   4   2 10 6 
   8   6   3 14 11 9 
   7   2   3 13 11 10 
   6   7   3 19 13 12 
   5   2   5 22 19 18 17 16 
   5   5   4 22 19 16 15 
   8   3   2 22 12 
   2   3   2 16 15 
   6   3   4 25 22 20 18 
   7   4   4 25 22 20 18 
   3   5   2 25 17 
   7   8   3 25 23 20 
   9   3   2 21 20 
   7   4   1 21 
   9   7   1 20 
   7   3   3 31 27 24 
  10   3   3 31 27 24 
   3   5   3 31 27 24 
  10   5   2 31 24 
   6   3   2 30 26 
   6   1   1 26 
   9   4   2 29 28 
   4   1   1 28 
   7   2   1 32
   9   6   1 32
   5   6   1 32
   3   3   1 32
   0   0   0 
